
Gurobi 10.0.3 (linux64, gurobi_cl) logging started Thu Nov  2 11:33:57 2023

Set parameter Username
Set parameter TimeLimit to value 3600
Set parameter LogFile to value "RCPSP_42.log"
Set parameter Threads to value 32
Academic license - for non-commercial use only - expires 2024-10-30
Using license file /home/jrivera6/gurobi-licenses/v1003/compute-0-35/gurobi.lic

Gurobi Optimizer version 10.0.3 build v10.0.3rc0 (linux64)
Copyright (c) 2023, Gurobi Optimization, LLC

Read MPS format model from file RCPSP_42.mps
Reading time = 0.02 seconds
RCPSP_42: 5329 rows, 2080 columns, 17044 nonzeros

CPU model: Intel(R) Xeon(R) Gold 6130 CPU @ 2.10GHz, instruction set [SSE2|AVX|AVX2|AVX512]
Thread count: 32 physical cores, 32 logical processors, using up to 32 threads

Optimize a model with 5329 rows, 2080 columns and 17044 nonzeros
Model fingerprint: 0xf754d0f5
Variable types: 32 continuous, 2048 integer (2048 binary)
Coefficient statistics:
  Matrix range     [1e+00, 2e+02]
  Objective range  [1e+00, 1e+00]
  Bounds range     [1e+00, 1e+00]
  RHS range        [1e+00, 2e+02]
Presolve removed 2862 rows and 1066 columns
Presolve time: 0.13s
Presolved: 2467 rows, 1014 columns, 7971 nonzeros
Variable types: 31 continuous, 983 integer (983 binary)

Root relaxation: objective 6.100000e+01, 358 iterations, 0.00 seconds (0.00 work units)

    Nodes    |    Current Node    |     Objective Bounds      |     Work
 Expl Unexpl |  Obj  Depth IntInf | Incumbent    BestBd   Gap | It/Node Time

     0     0   61.00000    0   24          -   61.00000      -     -    0s
     0     0   61.00000    0   77          -   61.00000      -     -    0s
     0     0   61.00000    0   58          -   61.00000      -     -    0s
     0     0   65.00000    0   60          -   65.00000      -     -    0s
     0     0   65.00000    0   66          -   65.00000      -     -    0s
     0     0   65.00000    0   70          -   65.00000      -     -    1s
     0     0   65.02032    0   92          -   65.02032      -     -    1s
     0     0   65.02032    0   78          -   65.02032      -     -    1s
     0     0   67.00000    0  109          -   67.00000      -     -    1s
     0     0   67.00000    0  113          -   67.00000      -     -    1s
H    0     0                     111.0000000   67.24981  39.4%     -    1s
     0     0   67.24981    0   89  111.00000   67.24981  39.4%     -    1s
     0     0   67.30108    0  196  111.00000   67.30108  39.4%     -    1s
     0     0   67.30108    0  113  111.00000   67.30108  39.4%     -    2s
     0     0   67.30769    0   84  111.00000   67.30769  39.4%     -    2s
H    0     0                     109.0000000   67.30769  38.2%     -    2s
     0     0   67.30769    0  103  109.00000   67.30769  38.2%     -    2s
H    0     0                     106.0000000   67.33052  36.5%     -    2s
     0     0   67.33052    0  137  106.00000   67.33052  36.5%     -    2s
     0     0   67.33333    0  148  106.00000   67.33333  36.5%     -    2s
     0     0   67.33333    0  146  106.00000   67.33333  36.5%     -    2s
     0     0   67.33389    0  173  106.00000   67.33389  36.5%     -    2s
     0     0   67.33389    0  145  106.00000   67.33389  36.5%     -    2s
     0     0   67.33933    0  144  106.00000   67.33933  36.5%     -    2s
     0     0   67.33937    0  135  106.00000   67.33937  36.5%     -    2s
H    0     0                      99.0000000   67.33937  32.0%     -    3s
     0     0   67.34523    0  160   99.00000   67.34523  32.0%     -    3s
     0     0   67.34523    0   71   99.00000   67.34523  32.0%     -    3s
H    0     0                      93.0000000   67.34523  27.6%     -    3s
H    0     0                      92.0000000   67.34523  26.8%     -    3s
     0     2   67.34523    0   62   92.00000   67.34523  26.8%     -    4s
     6    12   68.95825    3  153   92.00000   67.35664  26.8%   227    5s
H   48    62                      91.0000000   67.74851  25.6%   144    6s
H   52    62                      90.0000000   67.74851  24.7%   139    6s
H  110   103                      88.0000000   67.74851  23.0%  97.0    8s
   557   442   76.00000   21  114   88.00000   67.74851  23.0%  32.9   10s
   685   468   76.00000   24  117   88.00000   67.74851  23.0%  29.1   15s
H  688   468                      87.0000000   67.74851  22.1%  29.0   15s
H  708   468                      86.0000000   67.74851  21.2%  28.8   15s
  1929  1327 infeasible   14        86.00000   68.18048  20.7%  19.1   20s
H 1952  1327                      85.0000000   68.21175  19.8%  19.0   20s
  3372  1773   74.00000   14   71   85.00000   68.21175  19.8%  14.5   30s
  3374  1774   75.00000   19   17   85.00000   68.21175  19.8%  14.5   36s
H 3374  1685                      84.0000000   68.21175  18.8%  14.5   40s
  3377  1687   81.00000   64  162   84.00000   68.21175  18.8%  14.5   48s
H 3377  1602                      83.0000000   68.21175  17.8%  14.5   53s
  3378  1603   76.00000   37   66   83.00000   68.21175  17.8%  14.5   59s
  3380  1604   83.00000   32   86   83.00000   68.21175  17.8%  14.5   61s
H 3385  1528                      82.0000000   68.21175  16.8%  14.5   63s

Cutting planes:
  Learned: 6
  Gomory: 6
  Cover: 5
  Implied bound: 10
  Projected implied bound: 3
  Clique: 6
  MIR: 91
  StrongCG: 1
  Flow cover: 166
  Inf proof: 1
  RLT: 12
  Relax-and-lift: 29

Explored 3390 nodes (66445 simplex iterations) in 64.12 seconds (2.67 work units)
Thread count was 32 (of 32 available processors)

Solution count 10: 82 83 84 ... 92

Optimal solution found (tolerance 1.00e-04)
Best objective 8.200000000000e+01, best bound 8.200000000000e+01, gap 0.0000%

Wrote result file 'RCPSP_42.sol'

